NAME : pa561.tsp.1038.tour
COMMENT : Length = 1038
COMMENT : Found by LKH [Keld Helsgaun] Sat May 25 06:43:32 2013
TYPE : TOUR
DIMENSION : 113
TOUR_SECTION
1
153
156
163
165
140
166
481
484
486
409
414
417
459
519
504
509
507
229
245
241
223
221
138
215
191
190
188
183
181
57
71
55
43
40
36
12
19
22
31
65
74
87
83
82
104
102
206
211
214
203
253
259
260
254
257
262
265
311
312
319
316
320
304
306
307
308
301
291
292
279
272
273
267
240
238
250
251
249
252
282
285
284
559
558
554
553
547
545
546
473
476
479
469
467
444
388
449
450
396
397
373
370
369
364
428
342
362
357
353
336
333
331
-1
EOF
